 10	68
 14
  0	 67	 29	 26	 41	135	 94	  1	 69	 97	 49	109	117	137	
 16
  0	 48	 66	 65	 14	134	133	 16	 82	 61	 37	129	116	105	 84	137	
 14
  0	 57	  9	 15	 62	125	130	 83	 77	  2	 27	 95	 70	137	
 16
  0	 58	 34	  4	 22	126	 53	 90	121	 54	102	 72	 10	 78	122	137	
 24
  0	 36	 20	 88	  7	 31	 75	104	 11	 99	 79	  8	 32	 76	 63	 50	100	  6	 74	 28	118	131	 96	137	
 14
  0	 43	 56	124	111	 59	  5	 52	 64	120	127	 73	132	137	
 20
  0	 17	 12	 38	 23	 85	 51	 80	106	 44	119	 91	 30	 40	112	 98	 13	108	 81	137	
 14
  0	 25	 60	 93	  3	 42	128	 33	 18	110	 71	 86	101	137	
 10
  0	 21	 46	 89	114	 24	 19	 92	 87	137	
 14
  0	 39	 35	103	107	 68	 55	136	 47	 45	123	115	113	137	
